Li8 Ni9 S10
1.0
   4.0702453737733366    0.0000000000000000    0.0000000000000002
   0.0407958623250987    4.0781138568411244    0.0000000000000002
   0.0000000000000000    0.0000000000000000   34.1196780799912176
Li Ni S
8 9 10
direct
   0.8721994603018079    0.7007118021956814    0.6800066038106172 Li
   0.3721994582623527    0.2007118024136403    0.6800066043024344 Li
   0.3722004308190541    0.2007118022839780    0.5965165138030717 Li
   0.8722004287795987    0.7007118025019377    0.5965165142948889 Li
   0.8722014013363008    0.7007118023722750    0.5130264237955262 Li
   0.3722013992968454    0.2007118025902342    0.5130264242873435 Li
   0.3722023718535473    0.2007118024605717    0.4295363337879807 Li
   0.8722023698140907    0.7007118026785316    0.4295363342797981 Li
   0.5106117229952450    0.2533381052928611    0.0595897137291015 Ni
   0.7727050228881993    0.5142806217423314    0.1176660747685437 Ni
   0.2520513464071003    0.7628843271589121    0.0290904728868450 Ni
   0.5212321956418948    0.2626338863440332    0.1787974181732561 Ni
   0.7833254955348490    0.5235764027935035    0.2368737792126985 Ni
   0.2626718190537500    0.7721801082100842    0.1482981773309997 Ni
   0.5318526682885444    0.2719296673952051    0.2980051226174107 Ni
   0.7939459681814990    0.5328721838446758    0.3560814836568530 Ni
   0.2732922917003998    0.7814758892612564    0.2675058817751543 Ni
   0.2606889029821530    0.2598839049311698    0.0000000000000000 S
   0.7546948444178690    0.7540346033987354    0.0582318453777487 S
   0.2713093756288028    0.2691796859823419    0.1192077044441546 S
   0.7653153170645187    0.7633303844499075    0.1774395498219033 S
   0.2819298482754525    0.2784754670335139    0.2384154088883092 S
   0.7759357897111684    0.7726261655010795    0.2966472542660579 S
   0.8721999445443186    0.2007118023926887    0.6382615590457448 S
   0.3722009150615642    0.7007118024809859    0.5547714690381993 S
   0.8722018855788108    0.2007118025692823    0.4712813790306538 S
   0.3722028560960574    0.7007118026575790    0.3877912890231084 S
