Li10 Ni12 S13
1.0
   4.0783179046933595    0.0000000000000000    0.0000000000000002
   0.0023715478794415    5.7234961281290095    0.0000000000000004
   0.0000000000000000    0.0000000000000000   30.8866540426624567
Li Ni S
10 12 13
direct
   0.9008874242830961    0.4435887918349359    0.6861102838804864 Li
   0.9008874283571610    0.9435887927456823    0.6861102836435362 Li
   0.4008867265106684    0.9435890393595066    0.6208942948374483 Li
   0.4008867305847330    0.4435890402702520    0.6208942946004981 Li
   0.9008860287382402    0.4435892868840758    0.5556783057944104 Li
   0.9008860328123048    0.9435892877948220    0.5556783055574599 Li
   0.4008853309658109    0.9435895344086460    0.4904623167513723 Li
   0.4008853350398756    0.4435895353193917    0.4904623165144219 Li
   0.9008846331933827    0.4435897819332153    0.4252463277083342 Li
   0.9008846372674483    0.9435897828439614    0.4252463274713837 Li
   0.7717874235491821    0.6896473892954076    0.0457266159502059 Ni
   0.5178539114519328    0.3048599024284512    0.0696893783348410 Ni
   0.2551300202807173    0.1894935380125218    0.0000000000000000 Ni
   0.7814798034321211    0.1899558610355930    0.1393697316013080 Ni
   0.5275462913348715    0.8051683741686364    0.1633324939859431 Ni
   0.2648224001636562    0.6898020097527071    0.0936431156511022 Ni
   0.7911721833150597    0.6902643327757787    0.2330128472524102 Ni
   0.5372386712178105    0.3054768459088220    0.2569756096370453 Ni
   0.2745147800465951    0.1901104814928927    0.1872862313022044 Ni
   0.8008645631979989    0.1905728045159638    0.3266559629035124 Ni
   0.5469310511007495    0.8057853176490077    0.3506187252881476 Ni
   0.2842071599295338    0.6904189532330778    0.2809293469533066 Ni
   0.7581183866997392    0.0619347968828390    0.0218003541101504 S
   0.2687285241363739    0.5617781361493130    0.0239252512928953 S
   0.7678107665826780    0.5622432686230245    0.1154434697612525 S
   0.2784209040193128    0.0620866078894986    0.1175683669439974 S
   0.7775031464656170    0.0625517403632095    0.2090865854123548 S
   0.2881132839022514    0.5623950796296842    0.2112114825950995 S
   0.7871955263485557    0.5628602121033954    0.3027297010634569 S
   0.2978056637851905    0.0627035513698693    0.3048545982462018 S
   0.4008874262982907    0.6935887922665620    0.6861102837701114 S
   0.9008867285258623    0.1935890397911320    0.6208942947270735 S
   0.4008860307534339    0.6935892873157015    0.5556783056840353 S
   0.9008853329810057    0.1935895348402719    0.4904623166409972 S
   0.4008846352085773    0.6935897823648411    0.4252463275979592 S
