Ni9 S6                                  
   1.00000000000000     
     2.8546975642175969   -4.9444812214679947   -0.0000000000000000
     2.8546975642175969    4.9444812214679947   -0.0000000000000000
     0.0000000000000000    0.0000000000000000    7.0919182416013671
  Ni_pv/368cd815  S/0fc7481fb069
               9               6
Direct
  0.4112359316443984  0.3333333333333357  0.8333333333333357
  0.6666666666666643  0.0779025983110626  0.8333333333333357
  0.9220974016889376  0.5887640683556019  0.8333333333333357
  0.0779025983110626  0.6666666666666643  0.1666666666666643
  0.3333333333333357  0.4112359316443984  0.1666666666666643
  0.5887640683556019  0.9220974016889376  0.1666666666666643
  0.7445692649777267 -0.0000000000000000  0.5000000000000000
  0.0000000000000000  0.7445692649777267  0.5000000000000000
  0.2554307350222730  0.2554307350222730  0.5000000000000000
  0.6666666666666643  0.3333333333333357  0.5869389153877321
  0.6666666666666643  0.3333333333333357  0.0797277512789322
  0.3333333333333357  0.6666666666666643  0.9202722487210678
  0.3333333333333357  0.6666666666666643  0.4130610846122678
 -0.0000000000000000 -0.0000000000000000  0.2536055820544036
 -0.0000000000000000 -0.0000000000000000  0.7463944179455965
 
  0.00000000E+00  0.00000000E+00  0.00000000E+00
  0.00000000E+00  0.00000000E+00  0.00000000E+00
  0.00000000E+00  0.00000000E+00  0.00000000E+00
  0.00000000E+00  0.00000000E+00  0.00000000E+00
  0.00000000E+00  0.00000000E+00  0.00000000E+00
  0.00000000E+00  0.00000000E+00  0.00000000E+00
  0.00000000E+00  0.00000000E+00  0.00000000E+00
  0.00000000E+00  0.00000000E+00  0.00000000E+00
  0.00000000E+00  0.00000000E+00  0.00000000E+00
  0.00000000E+00  0.00000000E+00  0.00000000E+00
  0.00000000E+00  0.00000000E+00  0.00000000E+00
  0.00000000E+00  0.00000000E+00  0.00000000E+00
  0.00000000E+00  0.00000000E+00  0.00000000E+00
  0.00000000E+00  0.00000000E+00  0.00000000E+00
  0.00000000E+00  0.00000000E+00  0.00000000E+00
