Li8 Ni9 S10
1.0
   4.0309644414728574    0.0000000000000000    0.0000000000000002
   0.0378410155796778    4.0307868197113192   -0.0000000000000006
   0.0000000000000000    0.0000000000000000   34.0382342909544420
Li Ni S
8 9 10
direct
   0.9764211519050415    0.7691210999290884    0.6564156950867205 Li
   0.4764211519050414    0.2691210999290885    0.6564156950867205 Li
   0.4764211519050416    0.2691210999290883    0.5731220724322023 Li
   0.9764211519050415    0.7691210999290885    0.5731220724322023 Li
   0.9764211519050420    0.7691210999290887    0.4898284497776842 Li
   0.4764211519050416    0.2691210999290883    0.4898284497776842 Li
   0.4764211519050412    0.2691210999290883    0.4065348271231662 Li
   0.9764211519050411    0.7691210999290883    0.4065348271231662 Li
   0.7640905664519217    0.2545099864519216    0.0301708049100639 Ni
   0.2568796065861870    0.5116698965861868    0.0603416098201278 Ni
   0.5069306563176564    0.7617209463176563    0.0000000000000000 Ni
   0.7733908429038434    0.2638102629038431    0.1485850698730807 Ni
   0.2661798830381086    0.5209701730381083    0.1787558747831445 Ni
   0.5162309327695780    0.7710212227695779    0.1184142649630168 Ni
   0.7826911193557650    0.2731105393557646    0.2669993348360974 Ni
   0.2754801594900300    0.5302704494900300    0.2971701397461613 Ni
   0.5255312092214999    0.7803214992214997    0.2368285299260336 Ni
   0.2610517206905167    0.2610517206905166    0.0010455079647821 S
   0.7575488322133267    0.7575488322133267    0.0592961018553457 S
   0.2703519971424382    0.2703519971424381    0.1194597729277988 S
   0.7668491086652484    0.7668491086652480    0.1777103668183626 S
   0.2796522735943600    0.2796522735943596    0.2378740378908156 S
   0.7761493851171702    0.7761493851171697    0.2961246317813793 S
   0.4764211519050416    0.7691210999290885    0.6147688837594613 S
   0.9764211519050415    0.2691210999290883    0.5314752611049433 S
   0.4764211519050416    0.7691210999290883    0.4481816384504252 S
   0.9764211519050420    0.2691210999290887    0.3648880157959070 S
