Ni9 S6
1.0
   4.0309644414728574    0.0000000000000000    0.0000000000000002
   0.0378410155796778    4.0307868197113192   -0.0000000000000006
   0.0000000000000000    0.0000000000000000   35.9793376875475914
Ni S
9 6
direct
   0.7618181198784489    0.2522375398784488    0.0275539725001729 Ni
   0.2546071600127142    0.5093974500127141    0.0560970472836441 Ni
   0.5139584861961053    0.7687487761961050    0.1110366534214076 Ni
   0.7711183963303705    0.2615378163303702    0.1395797282048788 Ni
   0.2639074364646359    0.5186977264646357    0.1681228029883499 Ni
   0.5232587626480268    0.7780490526480266    0.2230624091261135 Ni
   0.7804186727822924    0.2708380927822923    0.2516054839095847 Ni
   0.2732077129165573    0.5279980029165571    0.2801485586930558 Ni
   0.5325590390999484    0.7873493290999483    0.3350881648308193 Ni
   0.2587792741170439    0.2587792741170438    0.0000000000000000 S
   0.7552763856398540    0.7552763856398539    0.0551079450003459 S
   0.2680795505689655    0.2680795505689654    0.1120257557047059 S
   0.7645766620917754    0.7645766620917753    0.1671337007050518 S
   0.2773798270208871    0.2773798270208869    0.2240515114094118 S
   0.7738769385436972    0.7738769385436970    0.2791594564097576 S
