Li8 S4                                  
   1.00000000000000     
     5.6973179387208113   -0.0000000556442983   -0.0000027643161826
    -0.0000000554059031    5.6973179479070541   -0.0000027649350662
    -0.0000027645298577   -0.0000027649170986    5.6973099878579099
  Li S
               8               4
Direct
  0.7500000006382678  0.2500000008075425  0.2499999984655486
  0.2499999990917517  0.7499999991249567  0.7500000016750308
  0.7500000002279522  0.7500000007498580  0.7499999985778638
  0.2500000000935934  0.2499999992431160  0.2500000013644590
  0.2500000005644171  0.2500000000987580  0.7499999986564736
  0.7499999996280871  0.7499999999978119  0.2500000015362293
  0.2500000008536152  0.7500000001336696  0.2499999984653484
  0.7499999989560018  0.2499999997809617  0.7500000013709675
  0.0000000000076794  0.0000000000198125 -0.0000000000180806
  0.0000000000021544  0.5000000000110937  0.4999999999610773
  0.4999999999751929  0.0000000000284433  0.4999999999589370
  0.4999999999612871  0.5000000000039760 -0.0000000000138547

