Ni9 S6                                  
   1.00000000000000     
     2.8712181973266038   -4.9621064801432526    0.0052547553558204
     2.8617946713407205    4.9566662517123365   -0.0021168771682377
     0.0038868295257847   -0.0052682581317864    7.1236133948766840
  Ni S
               9               6
Direct
  0.4106764775086562  0.3333965150724333  0.8332655700643934
  0.6669132096822143  0.0766562710204847  0.8334363649888407
  0.9225217439592270  0.5893195108898444  0.8333419683510452
  0.0773367323509651  0.6667285215530708  0.1665939140915439
  0.3335788577699292  0.4099853902275302  0.1667673271449838
  0.5891787687958535  0.9226453386197899  0.1666679577501249
  0.7439996534085503  0.0000619101784822  0.4999276997726423
  0.0002428183405676  0.7433070275114346  0.5001026869551956
  0.2558541484181953  0.2559833293959248  0.5000090904898431
  0.6662921490132706  0.3335704269804191  0.5888189467369183
  0.6669320986947497  0.3337281620723859  0.0778056068604964
  0.3329696751798191  0.6669090587649655  0.9221648679849598
  0.3336046866749747  0.6670611577218774  0.4111396464994770
 -0.0003685461616196  0.0002463391968679  0.2555007173887572
  0.0002675263646470  0.0004010407944890  0.7444576349207788

