Li60 P8 S32
1.0
   6.1113985299999998    0.0000000000000000    0.0000000000000004
  -0.0000000000000008   13.3479004900000007    0.0000000000000008
   0.0000000000000000    0.0000000000000000   31.7072252752934247
Li P S
60 8 32
direct
   0.2964062099999998    0.1586581500000000    0.0608604584015725 Li
   0.7964062099999999    0.3413418500000001    0.0631256094699443 Li
   0.7035937899999999    0.8413418500000003    0.1848465262730892 Li
   0.2035937899999999    0.6586581500000002    0.1871116773414610 Li
   0.7035937899999999    0.8413418500000003    0.0631256094699443 Li
   0.2035937899999999    0.6586581500000002    0.0608604584015725 Li
   0.2964062099999998    0.1586581500000001    0.1871116773414610 Li
   0.7964062100000000    0.3413418500000001    0.1848465262730892 Li
   0.2187462599999998    0.4286963400000000    0.1239860678715168 Li
   0.7187462599999997    0.0713036600000003    0.0000000000000000 Li
   0.7812537399999999    0.5713036600000002    0.0000000000000000 Li
   0.2812537400000000    0.9286963400000000    0.1239860678715168 Li
   0.2964062099999998    0.1586581500000001    0.3088325941446058 Li
   0.7964062099999998    0.3413418500000002    0.3110977452129777 Li
   0.7035937899999998    0.8413418500000003    0.4328186620161225 Li
   0.2035937899999998    0.6586581500000002    0.4350838130844942 Li
   0.7035937899999998    0.8413418500000003    0.3110977452129777 Li
   0.2035937899999998    0.6586581500000002    0.3088325941446058 Li
   0.2964062099999997    0.1586581500000001    0.4350838130844942 Li
   0.7964062099999998    0.3413418500000002    0.4328186620161225 Li
   0.2187462599999997    0.4286963400000000    0.3719582036145501 Li
   0.7187462599999999    0.0713036600000003    0.2479721357430333 Li
   0.7812537400000000    0.5713036600000002    0.2479721357430333 Li
   0.2812537399999999    0.9286963400000000    0.3719582036145501 Li
   0.5000000000000002    0.9999999999999999    0.7476915772180899 Li
   0.5000000000000001    0.6666666666666665    0.7476915772180899 Li
   0.9999999999999999    0.9999999999999998    0.7476915772180899 Li
   0.5000000000000000    0.3333333333333334    0.7476915772180899 Li
   0.0000000000000002    0.6666666666666665    0.7476915772180899 Li
   0.0000000000000000    0.3333333333333334    0.7476915772180899 Li
   0.7500000000000002    0.1666666666666665    0.6993687793576189 Li
   0.7500000000000002    0.8333333333333334    0.6993687793576189 Li
   0.2500000000000002    0.1666666666666665    0.6993687793576189 Li
   0.7500000000000001    0.4999999999999999    0.6993687793576189 Li
   0.2500000000000000    0.8333333333333335    0.6993687793576189 Li
   0.2500000000000000    0.5000000000000000    0.6993687793576189 Li
   0.0000000000000002    0.3333333333333330    0.6510459814971479 Li
   0.0000000000000000    0.0000000000000000    0.6510459814971479 Li
   0.5000000000000002    0.3333333333333330    0.6510459814971479 Li
   0.0000000000000000    0.6666666666666667    0.6510459814971479 Li
   0.5000000000000000    0.9999999999999999    0.6510459814971481 Li
   0.5000000000000000    0.6666666666666667    0.6510459814971481 Li
   0.2500000000000002    0.4999999999999998    0.6027231836366771 Li
   0.2500000000000002    0.1666666666666665    0.6027231836366771 Li
   0.7500000000000002    0.4999999999999998    0.6027231836366771 Li
   0.2500000000000000    0.8333333333333334    0.6027231836366771 Li
   0.7500000000000000    0.1666666666666663    0.6027231836366771 Li
   0.7499999999999998    0.8333333333333330    0.6027231836366771 Li
   0.5000000000000004    0.6666666666666667    0.5544003857762061 Li
   0.5000000000000004    0.3333333333333330    0.5544003857762061 Li
   0.0000000000000004    0.6666666666666667    0.5544003857762061 Li
   0.5000000000000002    0.9999999999999999    0.5544003857762061 Li
   0.0000000000000000    0.3333333333333328    0.5544003857762061 Li
   0.0000000000000000    0.9999999999999998    0.5544003857762061 Li
   0.7500000000000007    0.8333333333333330    0.5060775879157351 Li
   0.7500000000000007    0.4999999999999998    0.5060775879157351 Li
   0.2500000000000004    0.8333333333333333    0.5060775879157351 Li
   0.7500000000000007    0.1666666666666665    0.5060775879157351 Li
   0.2500000000000004    0.4999999999999998    0.5060775879157351 Li
   0.2500000000000000    0.1666666666666661    0.5060775879157351 Li
   0.3071058799999998    0.4063681799999999    0.0000000000000000 P
   0.1928941199999998    0.9063681799999997    0.0000000000000000 P
   0.6928941200000001    0.5936318200000001    0.1239860678715168 P
   0.8071058799999998    0.0936318200000002    0.1239860678715168 P
   0.3071058799999997    0.4063681799999999    0.2479721357430333 P
   0.1928941199999997    0.9063681800000000    0.2479721357430333 P
   0.6928941199999998    0.5936318200000003    0.3719582036145501 P
   0.8071058799999997    0.0936318200000003    0.3719582036145501 P
   0.3573319399999998    0.5964969700000001    0.1239860678715168 S
   0.1991333699999998    0.3346929900000000    0.1950283464772243 S
   0.8573319399999998    0.9035030300000000    0.0000000000000000 S
   0.6426680599999999    0.4035030300000000    0.0000000000000000 S
   0.1991333699999998    0.3346929900000000    0.0529437892658093 S
   0.6991333699999999    0.1653070100000002    0.1769298571373258 S
   0.8008666299999999    0.6653070100000001    0.0710422786057075 S
   0.3008666299999997    0.8346929900000003    0.0529437892658093 S
   0.8008666300000000    0.6653070100000001    0.1769298571373258 S
   0.3008666299999999    0.8346929900000003    0.1950283464772243 S
   0.2017864799999997    0.5510709400000000    0.0000000000000000 S
   0.6991333699999999    0.1653070100000001    0.0710422786057075 S
   0.2982135199999997    0.0510709400000001    0.0000000000000000 S
   0.7982135199999998    0.4489290600000000    0.1239860678715168 S
   0.7017864800000000    0.9489290600000001    0.1239860678715168 S
   0.1426680599999997    0.0964969700000001    0.1239860678715168 S
   0.3573319399999998    0.5964969700000001    0.3719582036145501 S
   0.1991333699999997    0.3346929900000001    0.4430004822202576 S
   0.8573319399999999    0.9035030300000003    0.2479721357430333 S
   0.6426680599999998    0.4035030300000000    0.2479721357430333 S
   0.1991333699999998    0.3346929900000001    0.3009159250088425 S
   0.6991333699999998    0.1653070100000002    0.4249019928803593 S
   0.8008666299999998    0.6653070100000001    0.3190144143487408 S
   0.3008666299999997    0.8346929900000003    0.3009159250088425 S
   0.8008666299999998    0.6653070100000001    0.4249019928803593 S
   0.3008666299999997    0.8346929900000001    0.4430004822202576 S
   0.2017864799999997    0.5510709400000000    0.2479721357430333 S
   0.6991333699999998    0.1653070100000001    0.3190144143487408 S
   0.2982135199999997    0.0510709400000001    0.2479721357430333 S
   0.7982135199999997    0.4489290600000001    0.3719582036145501 S
   0.7017864799999995    0.9489290600000001    0.3719582036145501 S
   0.1426680599999996    0.0964969700000001    0.3719582036145501 S
