Li24 Mn3 Co3 Ni3 O18 F15
1.0
   5.0406060000000004    0.0000000000000000    0.0000000000000003
   2.5203029999999997    4.4271190000000011    0.0000000000000003
   0.0000000000000000    0.0000000000000000   38.0514098292185565
Li Mn Co Ni O F
24 3 3 3 18 15
direct
   0.0637903991084365    0.3330519999999996    0.0349490308508054 Li
   0.7307433991084362    0.9991460000000001    0.0349490308508054 Li
   0.3959743991084363    0.6686839999999998    0.0349490308508054 Li
   0.3919505449321730    0.3330519999999996    0.1622767178338950 Li
   0.0589035449321726    0.9991460000000001    0.1622767178338950 Li
   0.7241345449321728    0.6686839999999998    0.1622767178338950 Li
   0.7201106907559092    0.3330519999999996    0.2896044048169847 Li
   0.3870636907559091    0.9991460000000001    0.2896044048169847 Li
   0.0522946907559092    0.6686839999999998    0.2896044048169847 Li
   0.6220691358594300    0.3779308641405700    0.6536584599463406 Li
   0.9554024691927636    0.7112641974739031    0.6536584599463406 Li
   0.2887358025260967    0.0445975308072364    0.6536584599463406 Li
   0.9554024691927633    0.0445975308072367    0.5917010246368424 Li
   0.2887358025260967    0.3779308641405700    0.5917010246368424 Li
   0.6220691358594304    0.7112641974739032    0.5917010246368424 Li
   0.2887358025260964    0.7112641974739036    0.5297435893273443 Li
   0.6220691358594297    0.0445975308072368    0.5297435893273443 Li
   0.9554024691927632    0.3779308641405701    0.5297435893273443 Li
   0.6220691358594301    0.3779308641405699    0.4677861540178460 Li
   0.9554024691927636    0.7112641974739033    0.4677861540178460 Li
   0.2887358025260967    0.0445975308072363    0.4677861540178460 Li
   0.9554024691927634    0.0445975308072366    0.4058287187083479 Li
   0.2887358025260967    0.3779308641405699    0.4058287187083479 Li
   0.6220691358594297    0.7112641974739036    0.4058287187083479 Li
   0.0604584720203045    0.6678759999999997    0.0986128743423502 Mn
   0.3886186178440409    0.6678759999999997    0.2259405613254399 Mn
   0.7167787636677772    0.6678759999999997    0.3532682483085295 Mn
   0.7297024720203045    0.3293879999999998    0.0986128743423502 Co
   0.0578626178440407    0.3293879999999998    0.2259405613254399 Co
   0.3860227636677771    0.3293879999999998    0.3532682483085295 Co
   0.3944804720203046    0.9998319999999996    0.0986128743423502 Ni
   0.7226406178440408    0.9998319999999996    0.2259405613254399 Ni
   0.0508007636677772    0.9998319999999996    0.3532682483085295 Ni
   0.0536508575525201    0.9846439999999999    0.0692154579716945 O
   0.7493647536483466    0.6607230000000002    0.0698579534802111 O
   0.3876971240942814    0.3556429999999997    0.0698980617016108 O
   0.0505450445685256    0.6607229999999999    0.0000401082213997 O
   0.7172926741225913    0.3556429999999998    0.0000000000000000 O
   0.4223379406643520    0.9846440000000001    0.0006826037299163 O
   0.3818110033762563    0.9846439999999999    0.1965431449547841 O
   0.0775248994720830    0.6607230000000002    0.1971856404633008 O
   0.7158572699180177    0.3556429999999997    0.1972257486847004 O
   0.3787051903922618    0.6607229999999999    0.1273677952044893 O
   0.0454528199463278    0.3556429999999998    0.1273276869830897 O
   0.7504980864880884    0.9846440000000001    0.1280102907130060 O
   0.7099711491999932    0.9846439999999999    0.3238708319378737 O
   0.4056850452958192    0.6607230000000002    0.3245133274463904 O
   0.0440174157417543    0.3556429999999997    0.3245534356677900 O
   0.7068653362159978    0.6607229999999999    0.2546954821875789 O
   0.3736129657700640    0.3556429999999998    0.2546553739661792 O
   0.0786582323118243    0.9846440000000001    0.2553379776960955 O
   0.6220691358594300    0.7112641974739031    0.6846371776010898 F
   0.9554024691927633    0.0445975308072365    0.6846371776010898 F
   0.2887358025260967    0.3779308641405697    0.6846371776010898 F
   0.9554024691927634    0.3779308641405699    0.6226797422915915 F
   0.2887358025260967    0.7112641974739031    0.6226797422915915 F
   0.6220691358594301    0.0445975308072365    0.6226797422915915 F
   0.2887358025260967    0.0445975308072366    0.5607223069820932 F
   0.6220691358594304    0.3779308641405700    0.5607223069820932 F
   0.9554024691927632    0.7112641974739031    0.5607223069820932 F
   0.6220691358594297    0.7112641974739036    0.4987648716725953 F
   0.9554024691927634    0.0445975308072366    0.4987648716725951 F
   0.2887358025260962    0.3779308641405698    0.4987648716725953 F
   0.9554024691927632    0.3779308641405703    0.4368074363630970 F
   0.2887358025260962    0.7112641974739033    0.4368074363630970 F
   0.6220691358594297    0.0445975308072365    0.4368074363630970 F
