Li40 P4 S16
1.0
   6.1113985299999998    0.0000000000000000    0.0000000000000004
  -0.0000000000000005    7.8625083699999996    0.0000000000000005
   0.0000000000000000    0.0000000000000000   35.1776118660649928
Li P S
40 4 16
direct
   0.7035937900000002    0.4954326499999999    0.2998628078274294 Li
   0.2035937900000002    0.5045673499999999    0.2305447467256943 Li
   0.2964062100000001    0.9954326500000000    0.0408232195677293 Li
   0.7964062100000001    0.0045673499999999    0.1101412806694644 Li
   0.2964062100000001    0.5045673499999999    0.0408232195677294 Li
   0.7964062100000001    0.4954326499999999    0.1101412806694644 Li
   0.7035937900000002    0.0045673499999998    0.2998628078274294 Li
   0.2035937900000002    0.9954326500000000    0.2305447467256943 Li
   0.7812537400000000    0.7499999999999999    0.1973986922318841 Li
   0.2812537400000001    0.2499999999999999    0.3330088623212396 Li
   0.2187462600000001    0.2499999999999999    0.1432873351632747 Li
   0.7187462599999999    0.7499999999999999    0.0076771650739190 Li
   0.3750000000000001    0.8750000000000000    0.6588739438683695 Li
   0.3750000000000001    0.3750000000000001    0.6588739438683695 Li
   0.8750000000000002    0.8750000000000000    0.6588739438683693 Li
   0.8750000000000002    0.3750000000000000    0.6588739438683693 Li
   0.6250000000000000    0.1250000000000000    0.6153183482376019 Li
   0.6250000000000000    0.6250000000000000    0.6153183482376019 Li
   0.1250000000000000    0.1249999999999998    0.6153183482376019 Li
   0.1250000000000000    0.6249999999999998    0.6153183482376019 Li
   0.8750000000000002    0.3750000000000000    0.5717627526068343 Li
   0.8750000000000002    0.8750000000000000    0.5717627526068343 Li
   0.3750000000000002    0.3750000000000000    0.5717627526068343 Li
   0.3750000000000002    0.8750000000000000    0.5717627526068343 Li
   0.1250000000000000    0.6250000000000000    0.5282071569760667 Li
   0.1250000000000000    0.1250000000000000    0.5282071569760667 Li
   0.6250000000000000    0.6249999999999998    0.5282071569760667 Li
   0.6250000000000000    0.1249999999999996    0.5282071569760667 Li
   0.3750000000000002    0.8750000000000000    0.4846515613452989 Li
   0.3750000000000002    0.3750000000000000    0.4846515613452989 Li
   0.8750000000000002    0.8749999999999996    0.4846515613452989 Li
   0.8750000000000002    0.3750000000000000    0.4846515613452989 Li
   0.6250000000000004    0.1250000000000000    0.4410959657145313 Li
   0.6250000000000004    0.6250000000000000    0.4410959657145313 Li
   0.1250000000000004    0.1250000000000000    0.4410959657145313 Li
   0.1250000000000004    0.6250000000000000    0.4410959657145313 Li
   0.8750000000000002    0.3750000000000000    0.3975403700837639 Li
   0.8750000000000002    0.8749999999999996    0.3975403700837639 Li
   0.3750000000000000    0.3749999999999996    0.3975403700837639 Li
   0.3750000000000000    0.8749999999999996    0.3975403700837639 Li
   0.6928941200000004    0.2499999999999999    0.2058709574595388 P
   0.8071058800000001    0.2499999999999999    0.0161494303015738 P
   0.3071058800000001    0.7499999999999999    0.1348150699356199 P
   0.1928941200000003    0.7499999999999999    0.3245365970935850 P
   0.6426680600000001    0.7499999999999999    0.1337279086685467 S
   0.8008666300000001    0.0364929900000001    0.2330676104718133 S
   0.1426680600000002    0.2499999999999999    0.0172365915686471 S
   0.3573319400000002    0.2499999999999999    0.2069581187266120 S
   0.8008666300000001    0.4635070099999997    0.2330676104718133 S
   0.3008666300000002    0.9635070099999997    0.2973399440813104 S
   0.1991333700000001    0.5364929900000001    0.1076184169233454 S
   0.6991333700000002    0.4635070099999998    0.0433460833138484 S
   0.1991333700000001    0.9635070099999997    0.1076184169233453 S
   0.6991333700000002    0.0364929900000001    0.0433460833138483 S
   0.7982135200000003    0.2499999999999999    0.1509645002371938 S
   0.3008666300000001    0.5364929900000001    0.2973399440813102 S
   0.7017864800000005    0.2499999999999999    0.3406860273951587 S
   0.2017864800000001    0.7499999999999999    0.1897215271579650 S
   0.2982135200000001    0.7499999999999999    0.0000000000000000 S
   0.8573319400000002    0.7499999999999999    0.3234494358265117 S
